(set-logic HORN)
(declare-fun state (Int (Array Int Int) (Array Int Int) (Array Int Int) (Array Int Int) Int Int (Array Int Int) (Array Int Int) Int Int Int Int Int Int Int Int Int Int Int Int Int Int Int Int Int Int Int Int Int Int Int Int Int Int Int Bool Bool Bool Bool Bool (Array Int Int)) Bool)
(assert (forall ((|hhv_ULTIMATE.start_ULTIMATE.startEXIT_0_Int| Int) (|hhv_ULTIMATE.start_ULTIMATE.startEXIT_1_Array_Int_Int| (Array Int Int)) (|hhv_ULTIMATE.start_ULTIMATE.startEXIT_2_Array_Int_Int| (Array Int Int)) (|hhv_ULTIMATE.start_ULTIMATE.startEXIT_3_Array_Int_Array_Int_Int| (Array Int Int)) (|hhv_ULTIMATE.start_ULTIMATE.startEXIT_4_Array_Int_Array_Int_Int| (Array Int Int)) (|hhv_ULTIMATE.start_ULTIMATE.startEXIT_5_Int| Int) (|hhv_ULTIMATE.start_ULTIMATE.startEXIT_6_Int| Int) (|hhv_ULTIMATE.start_ULTIMATE.startEXIT_7_Array_Int_Int| (Array Int Int)) (|hhv_ULTIMATE.start_ULTIMATE.startEXIT_8_Array_Int_Int| (Array Int Int)) (|hhv_ULTIMATE.start_ULTIMATE.startEXIT_9_Int| Int) (|hhv_ULTIMATE.start_ULTIMATE.startEXIT_10_Int| Int) (|hhv_ULTIMATE.start_ULTIMATE.startEXIT_11_Int| Int) (|hhv_ULTIMATE.start_ULTIMATE.startEXIT_12_Int| Int) (|hhv_ULTIMATE.start_ULTIMATE.startEXIT_13_Int| Int) (|hhv_ULTIMATE.start_ULTIMATE.startEXIT_14_Int| Int) (|hhv_ULTIMATE.start_ULTIMATE.startEXIT_15_Int| Int) (|hhv_ULTIMATE.start_ULTIMATE.startEXIT_16_Int| Int) (|hhv_ULTIMATE.start_ULTIMATE.startEXIT_17_Int| Int) (|hhv_ULTIMATE.start_ULTIMATE.startEXIT_18_Int| Int) (|hhv_ULTIMATE.start_ULTIMATE.startEXIT_19_Int| Int) (|hhv_ULTIMATE.start_ULTIMATE.startEXIT_20_Int| Int) (|hhv_ULTIMATE.start_ULTIMATE.startEXIT_21_Int| Int) (|hhv_ULTIMATE.start_ULTIMATE.startEXIT_22_Int| Int) (|hhv_ULTIMATE.start_ULTIMATE.startEXIT_23_Int| Int) (|hhv_ULTIMATE.start_ULTIMATE.startEXIT_24_Int| Int) (|hhv_ULTIMATE.start_ULTIMATE.startEXIT_25_Int| Int) (|hhv_ULTIMATE.start_ULTIMATE.startEXIT_26_Int| Int) (|hhv_ULTIMATE.start_ULTIMATE.startEXIT_27_Int| Int) (|hhv_ULTIMATE.start_ULTIMATE.startEXIT_28_Int| Int) (|hhv_ULTIMATE.start_ULTIMATE.startEXIT_29_Int| Int) (|hhv_ULTIMATE.start_ULTIMATE.startEXIT_30_Int| Int) (|hhv_ULTIMATE.start_ULTIMATE.startEXIT_31_Int| Int) (|hhv_ULTIMATE.start_ULTIMATE.startEXIT_32_Int| Int) (|hhv_ULTIMATE.start_ULTIMATE.startEXIT_33_Int| Int) (|hhv_ULTIMATE.start_ULTIMATE.startEXIT_34_Int| Int) (|hhv_ULTIMATE.start_ULTIMATE.startEXIT_35_Int| Int) (|hbv_ULTIMATE.start_L2-1_36_Bool| Bool) (|.loc.5| Bool) (|.loc.6| Bool) (|.loc.7| Bool) (|.loc.8| Bool) (|hbv_ULTIMATE.start_L-1_1_Array_Int_Int| (Array Int Int)) (|.x.988| Int) (|.x.986| (Array Int Int)) (|.x.984| Int) (|.x.982| (Array Int Int)) (|.x.978| Int) (|.x.980| (Array Int Int)) (|.x.979| (Array Int Int)) (|hhv_ULTIMATE.start_ULTIMATE.startEXIT_36_Bool| Bool) (|.x.990| Int) (|.x.991| Int) (|.x.999| Int) (|.x.1000| Int) (|.x.1001| Int) (|.x.1005| Int) (|.x.1007| Int) (|.x.1011| Int) (|.loc.10| Bool) (|.x.1002| Int) (|.x.992| Int) (|.x.1003| Int) (|.x.1012| Int) (|.loc.11| Bool) (|.loc.9| Bool) (|.x.1009| Int) (|.x.1006| Int) (|.x.1004| Int) (|.x.997| Int) (|.loc.12| Bool) (|.x.1010| Int) (|.x.981| (Array Int Int)) (|.x.996| Int) (|.x.1008| Int) (|.x.998| Int) (|.x.1013| Int) (|.x.995| Int) (|.x.994| Int) (|.x.989| Int) (|.x.993| Int) (|.x.987| Int) (|.x.983| Int) (|.x.985| (Array Int Int)) (|.xtv.1| (Array Int Int))) (=> (and (and (and (and .loc.5 .loc.6) (not .loc.7)) (not .loc.8)) (and (and (and (and (and (= hhv_ULTIMATE.start_ULTIMATE.startEXIT_1_Array_Int_Int hhv_ULTIMATE.start_ULTIMATE.startEXIT_2_Array_Int_Int) (not hbv_ULTIMATE.start_L2-1_36_Bool)) (= hhv_ULTIMATE.start_ULTIMATE.startEXIT_7_Array_Int_Int hhv_ULTIMATE.start_ULTIMATE.startEXIT_8_Array_Int_Int)) (= hhv_ULTIMATE.start_ULTIMATE.startEXIT_5_Int hhv_ULTIMATE.start_ULTIMATE.startEXIT_6_Int)) (= hhv_ULTIMATE.start_ULTIMATE.startEXIT_3_Array_Int_Array_Int_Int hhv_ULTIMATE.start_ULTIMATE.startEXIT_4_Array_Int_Array_Int_Int)) (= hhv_ULTIMATE.start_ULTIMATE.startEXIT_9_Int hhv_ULTIMATE.start_ULTIMATE.startEXIT_10_Int))) (state |hhv_ULTIMATE.start_ULTIMATE.startEXIT_0_Int| |hhv_ULTIMATE.start_ULTIMATE.startEXIT_1_Array_Int_Int| |hhv_ULTIMATE.start_ULTIMATE.startEXIT_2_Array_Int_Int| |hhv_ULTIMATE.start_ULTIMATE.startEXIT_3_Array_Int_Array_Int_Int| |hhv_ULTIMATE.start_ULTIMATE.startEXIT_4_Array_Int_Array_Int_Int| |hhv_ULTIMATE.start_ULTIMATE.startEXIT_5_Int| |hhv_ULTIMATE.start_ULTIMATE.startEXIT_6_Int| |hhv_ULTIMATE.start_ULTIMATE.startEXIT_7_Array_Int_Int| |hhv_ULTIMATE.start_ULTIMATE.startEXIT_8_Array_Int_Int| |hhv_ULTIMATE.start_ULTIMATE.startEXIT_9_Int| |hhv_ULTIMATE.start_ULTIMATE.startEXIT_10_Int| |hhv_ULTIMATE.start_ULTIMATE.startEXIT_11_Int| |hhv_ULTIMATE.start_ULTIMATE.startEXIT_12_Int| |hhv_ULTIMATE.start_ULTIMATE.startEXIT_13_Int| |hhv_ULTIMATE.start_ULTIMATE.startEXIT_14_Int| |hhv_ULTIMATE.start_ULTIMATE.startEXIT_15_Int| |hhv_ULTIMATE.start_ULTIMATE.startEXIT_16_Int| |hhv_ULTIMATE.start_ULTIMATE.startEXIT_17_Int| |hhv_ULTIMATE.start_ULTIMATE.startEXIT_18_Int| |hhv_ULTIMATE.start_ULTIMATE.startEXIT_19_Int| |hhv_ULTIMATE.start_ULTIMATE.startEXIT_20_Int| |hhv_ULTIMATE.start_ULTIMATE.startEXIT_21_Int| |hhv_ULTIMATE.start_ULTIMATE.startEXIT_22_Int| |hhv_ULTIMATE.start_ULTIMATE.startEXIT_23_Int| |hhv_ULTIMATE.start_ULTIMATE.startEXIT_24_Int| |hhv_ULTIMATE.start_ULTIMATE.startEXIT_25_Int| |hhv_ULTIMATE.start_ULTIMATE.startEXIT_26_Int| |hhv_ULTIMATE.start_ULTIMATE.startEXIT_27_Int| |hhv_ULTIMATE.start_ULTIMATE.startEXIT_28_Int| |hhv_ULTIMATE.start_ULTIMATE.startEXIT_29_Int| |hhv_ULTIMATE.start_ULTIMATE.startEXIT_30_Int| |hhv_ULTIMATE.start_ULTIMATE.startEXIT_31_Int| |hhv_ULTIMATE.start_ULTIMATE.startEXIT_32_Int| |hhv_ULTIMATE.start_ULTIMATE.startEXIT_33_Int| |hhv_ULTIMATE.start_ULTIMATE.startEXIT_34_Int| |hhv_ULTIMATE.start_ULTIMATE.startEXIT_35_Int| |hbv_ULTIMATE.start_L2-1_36_Bool| |.loc.5| |.loc.6| |.loc.7| |.loc.8| |hbv_ULTIMATE.start_L-1_1_Array_Int_Int|))))
(assert (forall ((|hhv_ULTIMATE.start_ULTIMATE.startEXIT_0_Int| Int) (|hhv_ULTIMATE.start_ULTIMATE.startEXIT_1_Array_Int_Int| (Array Int Int)) (|hhv_ULTIMATE.start_ULTIMATE.startEXIT_2_Array_Int_Int| (Array Int Int)) (|hhv_ULTIMATE.start_ULTIMATE.startEXIT_3_Array_Int_Array_Int_Int| (Array Int Int)) (|hhv_ULTIMATE.start_ULTIMATE.startEXIT_4_Array_Int_Array_Int_Int| (Array Int Int)) (|hhv_ULTIMATE.start_ULTIMATE.startEXIT_5_Int| Int) (|hhv_ULTIMATE.start_ULTIMATE.startEXIT_6_Int| Int) (|hhv_ULTIMATE.start_ULTIMATE.startEXIT_7_Array_Int_Int| (Array Int Int)) (|hhv_ULTIMATE.start_ULTIMATE.startEXIT_8_Array_Int_Int| (Array Int Int)) (|hhv_ULTIMATE.start_ULTIMATE.startEXIT_9_Int| Int) (|hhv_ULTIMATE.start_ULTIMATE.startEXIT_10_Int| Int) (|hhv_ULTIMATE.start_ULTIMATE.startEXIT_11_Int| Int) (|hhv_ULTIMATE.start_ULTIMATE.startEXIT_12_Int| Int) (|hhv_ULTIMATE.start_ULTIMATE.startEXIT_13_Int| Int) (|hhv_ULTIMATE.start_ULTIMATE.startEXIT_14_Int| Int) (|hhv_ULTIMATE.start_ULTIMATE.startEXIT_15_Int| Int) (|hhv_ULTIMATE.start_ULTIMATE.startEXIT_16_Int| Int) (|hhv_ULTIMATE.start_ULTIMATE.startEXIT_17_Int| Int) (|hhv_ULTIMATE.start_ULTIMATE.startEXIT_18_Int| Int) (|hhv_ULTIMATE.start_ULTIMATE.startEXIT_19_Int| Int) (|hhv_ULTIMATE.start_ULTIMATE.startEXIT_20_Int| Int) (|hhv_ULTIMATE.start_ULTIMATE.startEXIT_21_Int| Int) (|hhv_ULTIMATE.start_ULTIMATE.startEXIT_22_Int| Int) (|hhv_ULTIMATE.start_ULTIMATE.startEXIT_23_Int| Int) (|hhv_ULTIMATE.start_ULTIMATE.startEXIT_24_Int| Int) (|hhv_ULTIMATE.start_ULTIMATE.startEXIT_25_Int| Int) (|hhv_ULTIMATE.start_ULTIMATE.startEXIT_26_Int| Int) (|hhv_ULTIMATE.start_ULTIMATE.startEXIT_27_Int| Int) (|hhv_ULTIMATE.start_ULTIMATE.startEXIT_28_Int| Int) (|hhv_ULTIMATE.start_ULTIMATE.startEXIT_29_Int| Int) (|hhv_ULTIMATE.start_ULTIMATE.startEXIT_30_Int| Int) (|hhv_ULTIMATE.start_ULTIMATE.startEXIT_31_Int| Int) (|hhv_ULTIMATE.start_ULTIMATE.startEXIT_32_Int| Int) (|hhv_ULTIMATE.start_ULTIMATE.startEXIT_33_Int| Int) (|hhv_ULTIMATE.start_ULTIMATE.startEXIT_34_Int| Int) (|hhv_ULTIMATE.start_ULTIMATE.startEXIT_35_Int| Int) (|hbv_ULTIMATE.start_L2-1_36_Bool| Bool) (|.loc.5| Bool) (|.loc.6| Bool) (|.loc.7| Bool) (|.loc.8| Bool) (|hbv_ULTIMATE.start_L-1_1_Array_Int_Int| (Array Int Int)) (|.x.988| Int) (|.x.986| (Array Int Int)) (|.x.984| Int) (|.x.982| (Array Int Int)) (|.x.978| Int) (|.x.980| (Array Int Int)) (|.x.979| (Array Int Int)) (|hhv_ULTIMATE.start_ULTIMATE.startEXIT_36_Bool| Bool) (|.x.990| Int) (|.x.991| Int) (|.x.999| Int) (|.x.1000| Int) (|.x.1001| Int) (|.x.1005| Int) (|.x.1007| Int) (|.x.1011| Int) (|.loc.10| Bool) (|.x.1002| Int) (|.x.992| Int) (|.x.1003| Int) (|.x.1012| Int) (|.loc.11| Bool) (|.loc.9| Bool) (|.x.1009| Int) (|.x.1006| Int) (|.x.1004| Int) (|.x.997| Int) (|.loc.12| Bool) (|.x.1010| Int) (|.x.981| (Array Int Int)) (|.x.996| Int) (|.x.1008| Int) (|.x.998| Int) (|.x.1013| Int) (|.x.995| Int) (|.x.994| Int) (|.x.989| Int) (|.x.993| Int) (|.x.987| Int) (|.x.983| Int) (|.x.985| (Array Int Int)) (|.xtv.1| (Array Int Int))) (=> (and (state |hhv_ULTIMATE.start_ULTIMATE.startEXIT_0_Int| |hhv_ULTIMATE.start_ULTIMATE.startEXIT_1_Array_Int_Int| |hhv_ULTIMATE.start_ULTIMATE.startEXIT_2_Array_Int_Int| |hhv_ULTIMATE.start_ULTIMATE.startEXIT_3_Array_Int_Array_Int_Int| |hhv_ULTIMATE.start_ULTIMATE.startEXIT_4_Array_Int_Array_Int_Int| |hhv_ULTIMATE.start_ULTIMATE.startEXIT_5_Int| |hhv_ULTIMATE.start_ULTIMATE.startEXIT_6_Int| |hhv_ULTIMATE.start_ULTIMATE.startEXIT_7_Array_Int_Int| |hhv_ULTIMATE.start_ULTIMATE.startEXIT_8_Array_Int_Int| |hhv_ULTIMATE.start_ULTIMATE.startEXIT_9_Int| |hhv_ULTIMATE.start_ULTIMATE.startEXIT_10_Int| |hhv_ULTIMATE.start_ULTIMATE.startEXIT_11_Int| |hhv_ULTIMATE.start_ULTIMATE.startEXIT_12_Int| |hhv_ULTIMATE.start_ULTIMATE.startEXIT_13_Int| |hhv_ULTIMATE.start_ULTIMATE.startEXIT_14_Int| |hhv_ULTIMATE.start_ULTIMATE.startEXIT_15_Int| |hhv_ULTIMATE.start_ULTIMATE.startEXIT_16_Int| |hhv_ULTIMATE.start_ULTIMATE.startEXIT_17_Int| |hhv_ULTIMATE.start_ULTIMATE.startEXIT_18_Int| |hhv_ULTIMATE.start_ULTIMATE.startEXIT_19_Int| |hhv_ULTIMATE.start_ULTIMATE.startEXIT_20_Int| |hhv_ULTIMATE.start_ULTIMATE.startEXIT_21_Int| |hhv_ULTIMATE.start_ULTIMATE.startEXIT_22_Int| |hhv_ULTIMATE.start_ULTIMATE.startEXIT_23_Int| |hhv_ULTIMATE.start_ULTIMATE.startEXIT_24_Int| |hhv_ULTIMATE.start_ULTIMATE.startEXIT_25_Int| |hhv_ULTIMATE.start_ULTIMATE.startEXIT_26_Int| |hhv_ULTIMATE.start_ULTIMATE.startEXIT_27_Int| |hhv_ULTIMATE.start_ULTIMATE.startEXIT_28_Int| |hhv_ULTIMATE.start_ULTIMATE.startEXIT_29_Int| |hhv_ULTIMATE.start_ULTIMATE.startEXIT_30_Int| |hhv_ULTIMATE.start_ULTIMATE.startEXIT_31_Int| |hhv_ULTIMATE.start_ULTIMATE.startEXIT_32_Int| |hhv_ULTIMATE.start_ULTIMATE.startEXIT_33_Int| |hhv_ULTIMATE.start_ULTIMATE.startEXIT_34_Int| |hhv_ULTIMATE.start_ULTIMATE.startEXIT_35_Int| |hbv_ULTIMATE.start_L2-1_36_Bool| |.loc.5| |.loc.6| |.loc.7| |.loc.8| |hbv_ULTIMATE.start_L-1_1_Array_Int_Int|) (let ((.def_53 (not .loc.7))) (let ((.def_55 (not .loc.8))) (let ((.def_87 (= hhv_ULTIMATE.start_ULTIMATE.startEXIT_1_Array_Int_Int .x.979))) (let ((.def_91 (= hhv_ULTIMATE.start_ULTIMATE.startEXIT_12_Int .x.990))) (let ((.def_94 (= hhv_ULTIMATE.start_ULTIMATE.startEXIT_13_Int .x.991))) (let ((.def_97 (= hhv_ULTIMATE.start_ULTIMATE.startEXIT_21_Int .x.999))) (let ((.def_100 (= hhv_ULTIMATE.start_ULTIMATE.startEXIT_22_Int .x.1000))) (let ((.def_103 (= hhv_ULTIMATE.start_ULTIMATE.startEXIT_23_Int .x.1001))) (let ((.def_106 (= hhv_ULTIMATE.start_ULTIMATE.startEXIT_27_Int .x.1005))) (let ((.def_109 (= hhv_ULTIMATE.start_ULTIMATE.startEXIT_29_Int .x.1007))) (let ((.def_112 (= hhv_ULTIMATE.start_ULTIMATE.startEXIT_33_Int .x.1011))) (let ((.def_114 (not .loc.5))) (let ((.def_127 (= hbv_ULTIMATE.start_L2-1_36_Bool hhv_ULTIMATE.start_ULTIMATE.startEXIT_36_Bool))) (let ((.def_131 (not .loc.6))) (let ((.def_136 (= hhv_ULTIMATE.start_ULTIMATE.startEXIT_14_Int 0))) (let ((.def_139 (and .def_94 (and .def_87 .def_91)))) (let ((.def_145 (and .def_112 (and .def_109 (and .def_106 (and .def_103 (and .def_100 (and .def_97 .def_139)))))))) (let ((.def_149 (not .loc.10))) (let ((.def_155 (= hhv_ULTIMATE.start_ULTIMATE.startEXIT_24_Int .x.1002))) (let ((.def_157 (= hhv_ULTIMATE.start_ULTIMATE.startEXIT_14_Int .x.992))) (let ((.def_160 (= hhv_ULTIMATE.start_ULTIMATE.startEXIT_25_Int .x.1003))) (let ((.def_163 (= hhv_ULTIMATE.start_ULTIMATE.startEXIT_34_Int .x.1012))) (let ((.def_168 (not .loc.9))) (let ((.def_187 (<= 200000 hhv_ULTIMATE.start_ULTIMATE.startEXIT_28_Int))) (let ((.def_200 (not .loc.11))) (let ((.def_205 (= hhv_ULTIMATE.start_ULTIMATE.startEXIT_31_Int .x.1009))) (let ((.def_207 (= hhv_ULTIMATE.start_ULTIMATE.startEXIT_28_Int .x.1006))) (let ((.def_216 (and .def_139 .def_157))) (let ((.def_219 (and .def_103 (and .def_100 (and .def_97 .def_216))))) (let ((.def_238 (and .def_106 (and .def_160 (and .def_155 .def_219))))) (let ((.def_253 (and hbv_ULTIMATE.start_L2-1_36_Bool .def_87))) (let ((.def_256 (and .def_157 (and .def_94 (and .def_91 .def_253))))) (let ((.def_267 (and .def_163 (and .def_112 (and .def_205 (and .def_109 (and .def_207 (and .def_106 (and .def_160 (and .def_155 (and .def_103 (and .def_100 (and .def_97 .def_256))))))))))))) (let ((.def_282 (and .def_163 (and .def_112 (and .def_205 (and .def_109 (and .def_207 .def_238))))))) (let ((.def_310 (<= 200000 hhv_ULTIMATE.start_ULTIMATE.startEXIT_26_Int))) (let ((.def_311 (or hbv_ULTIMATE.start_L2-1_36_Bool .def_310))) (let ((.def_315 (= hhv_ULTIMATE.start_ULTIMATE.startEXIT_26_Int .x.1004))) (let ((.def_317 (= hhv_ULTIMATE.start_ULTIMATE.startEXIT_19_Int .x.997))) (let ((.def_330 (= (+ hhv_ULTIMATE.start_ULTIMATE.startEXIT_26_Int (* (- 1) .x.1004)) (- 1)))) (let ((.def_331 (or hbv_ULTIMATE.start_L2-1_36_Bool .def_330))) (let ((.def_338 (and .def_216 .def_317))) (let ((.def_343 (and .def_160 (and .def_155 (and .def_103 (and .def_100 (and .def_97 .def_338))))))) (let ((.def_348 (and .def_205 (and .def_109 (and .def_207 (and .def_106 (and .def_315 .def_343))))))) (let ((.def_350 (and .def_163 (and .def_112 .def_348)))) (let ((.def_359 (not .loc.12))) (let ((.def_401 (= .x.1004 0))) (let ((.def_402 (or hbv_ULTIMATE.start_L2-1_36_Bool .def_401))) (let ((.def_406 (= hhv_ULTIMATE.start_ULTIMATE.startEXIT_32_Int .x.1010))) (let ((.def_408 (= hhv_ULTIMATE.start_ULTIMATE.startEXIT_3_Array_Int_Array_Int_Int .x.981))) (let ((.def_413 (select hhv_ULTIMATE.start_ULTIMATE.startEXIT_3_Array_Int_Array_Int_Int .x.1000))) (let ((.def_416 (select hhv_ULTIMATE.start_ULTIMATE.startEXIT_3_Array_Int_Array_Int_Int .x.991))) (let ((.def_421 (= .x.1004 .x.996))) (let ((.def_422 (not .def_421))) (let ((.def_435 (not .def_310))) (let ((.def_436 (or hbv_ULTIMATE.start_L2-1_36_Bool .def_435))) (let ((.def_440 (= hhv_ULTIMATE.start_ULTIMATE.startEXIT_30_Int .x.1008))) (let ((.def_444 (select (select hhv_ULTIMATE.start_ULTIMATE.startEXIT_3_Array_Int_Array_Int_Int .x.1005) (+ .x.1007 (* 4 .x.1004))))) (let ((.def_469 (and .def_317 (and .def_157 (and .def_94 (and .def_91 (and .def_253 .def_408))))))) (let ((.def_498 (and .def_317 (and .def_157 (and .def_94 (and .def_91 (and .def_87 .def_408))))))) (let ((.def_503 (and .def_160 (and .def_155 (and .def_103 (and .def_100 (and .def_97 .def_498))))))) (let ((.def_525 (= hhv_ULTIMATE.start_ULTIMATE.startEXIT_20_Int .x.998))) (let ((.def_551 (and .def_160 (and .def_155 (and .def_103 (and .def_100 (and .def_97 (and .def_498 .def_525)))))))) (let ((.def_572 (= hhv_ULTIMATE.start_ULTIMATE.startEXIT_35_Int .x.1013))) (let ((.def_584 (and .def_160 (and .def_155 (and .def_103 (and .def_100 (and .def_97 (and .def_338 .def_525)))))))) (let ((.def_616 (and .def_572 (and .def_163 (and .def_112 (and .def_406 (and .def_205 (and .def_440 (and .def_109 (and .def_207 (and .def_106 (and .def_315 .def_551)))))))))))) (let ((.def_685 (store hhv_ULTIMATE.start_ULTIMATE.startEXIT_3_Array_Int_Array_Int_Int hhv_ULTIMATE.start_ULTIMATE.startEXIT_27_Int (store (select hhv_ULTIMATE.start_ULTIMATE.startEXIT_3_Array_Int_Array_Int_Int hhv_ULTIMATE.start_ULTIMATE.startEXIT_27_Int) (+ (* 4 hhv_ULTIMATE.start_ULTIMATE.startEXIT_26_Int) hhv_ULTIMATE.start_ULTIMATE.startEXIT_29_Int) hhv_ULTIMATE.start_ULTIMATE.startEXIT_11_Int)))) (let ((.def_688 (store .def_685 hhv_ULTIMATE.start_ULTIMATE.startEXIT_22_Int (store (select .def_685 hhv_ULTIMATE.start_ULTIMATE.startEXIT_22_Int) (+ hhv_ULTIMATE.start_ULTIMATE.startEXIT_12_Int (* 4 hhv_ULTIMATE.start_ULTIMATE.startEXIT_26_Int)) hhv_ULTIMATE.start_ULTIMATE.startEXIT_15_Int)))) (let ((.def_763 (store hbv_ULTIMATE.start_L-1_1_Array_Int_Int .x.1005 1))) (let ((.def_764 (store .def_763 .x.1000 1))) (and (and (= hhv_ULTIMATE.start_ULTIMATE.startEXIT_10_Int .x.988) (and (= hhv_ULTIMATE.start_ULTIMATE.startEXIT_8_Array_Int_Int .x.986) (and (= hhv_ULTIMATE.start_ULTIMATE.startEXIT_6_Int .x.984) (and (= hhv_ULTIMATE.start_ULTIMATE.startEXIT_4_Array_Int_Array_Int_Int .x.982) (and (= hhv_ULTIMATE.start_ULTIMATE.startEXIT_0_Int .x.978) (= hhv_ULTIMATE.start_ULTIMATE.startEXIT_2_Array_Int_Int .x.980)))))) (or (and (or (and (or (or (or (or (and (or (or (and (or (or (or (and (or (and (or (or (or (and (or (and (or (or (or (or (or (or (and (or (and (or (and (or (and (and (and (and (and (and (and (and (and (and .def_87 hhv_ULTIMATE.start_ULTIMATE.startEXIT_36_Bool) .def_91) .def_94) .def_97) .def_100) .def_103) .def_106) .def_109) .def_112) .def_114) (and (or hbv_ULTIMATE.start_L2-1_36_Bool (and (= .x.1011 0) (= .x.979 (store (store (store hhv_ULTIMATE.start_ULTIMATE.startEXIT_1_Array_Int_Int hhv_ULTIMATE.start_ULTIMATE.startEXIT_27_Int 0) hhv_ULTIMATE.start_ULTIMATE.startEXIT_22_Int 0) hhv_ULTIMATE.start_ULTIMATE.startEXIT_13_Int 0)))) (and (and .loc.5 (or hhv_ULTIMATE.start_ULTIMATE.startEXIT_36_Bool (= .x.1001 .x.1011))) .def_127))) (and (and .loc.7 .def_131) .loc.10)) (and (or hbv_ULTIMATE.start_L2-1_36_Bool .def_136) (and .def_53 (and (and .def_127 (and .loc.6 (and .loc.5 .def_145))) .def_149)))) (and (and (and (and (and .def_155 .def_157) .def_160) .def_163) .loc.11) .def_168)) (and (or hbv_ULTIMATE.start_L2-1_36_Bool (and (= .x.992 .x.1012) (and (= .x.1012 (ite (= .x.1002 .x.1003) 1 0)) (and (= .x.1002 (select (select hhv_ULTIMATE.start_ULTIMATE.startEXIT_3_Array_Int_Array_Int_Int hhv_ULTIMATE.start_ULTIMATE.startEXIT_22_Int) (+ hhv_ULTIMATE.start_ULTIMATE.startEXIT_12_Int (* 4 hhv_ULTIMATE.start_ULTIMATE.startEXIT_28_Int)))) (and (= .x.1003 (select (select hhv_ULTIMATE.start_ULTIMATE.startEXIT_3_Array_Int_Array_Int_Int hhv_ULTIMATE.start_ULTIMATE.startEXIT_13_Int) (+ hhv_ULTIMATE.start_ULTIMATE.startEXIT_21_Int (* 4 hhv_ULTIMATE.start_ULTIMATE.startEXIT_28_Int)))) (not .def_187)))))) (and (and .def_53 (and .def_127 (and .loc.10 (and .loc.9 (and .def_114 (and .loc.6 .def_145)))))) .def_200))) (and .loc.8 (and .def_205 .def_207))) (and (or hhv_ULTIMATE.start_ULTIMATE.startEXIT_36_Bool (= (+ hhv_ULTIMATE.start_ULTIMATE.startEXIT_28_Int (* (- 1) .x.1006)) (- 1))) (and .def_55 (and .def_200 (and .def_53 (and .def_127 (and .def_168 (and .loc.10 (and .def_131 (and .def_114 (and .def_163 (and .def_112 (and .def_109 (and .def_106 .def_219)))))))))))))) (and (or hbv_ULTIMATE.start_L2-1_36_Bool (= .x.1006 0)) (and .def_200 (and .def_53 (and .def_127 (and .def_168 (and .loc.10 (and .def_131 (and .loc.8 (and .loc.5 (and .def_163 (and .def_112 (and .def_205 (and .def_109 .def_238)))))))))))))) (and .def_53 (and .def_149 (and .def_127 (and .loc.11 (and .loc.9 (and .def_114 (and .loc.8 (and .loc.6 .def_267))))))))) (and (or hbv_ULTIMATE.start_L2-1_36_Bool .def_187) (and .def_53 (and .def_149 (and .def_127 (and .loc.11 (and .loc.9 (and .def_114 (and .loc.8 (and .loc.6 .def_282)))))))))) (and .def_200 (and .def_53 (and .def_149 (and .def_127 (and .loc.9 (and .def_131 (and .def_114 (and .loc.8 .def_267))))))))) (and (and .def_200 (and .def_53 (and .def_149 (and .def_127 (and .loc.9 (and .def_131 (and .def_114 (and .loc.8 .def_282)))))))) .def_311)) (and .def_315 .def_317)) (and (and .def_55 (and .def_200 (and .def_53 (and .def_149 (and .def_127 (and .def_168 (and .def_131 (and .loc.5 .def_282)))))))) .def_331)) .loc.12) (and (or hbv_ULTIMATE.start_L2-1_36_Bool (not .def_136)) (and (and .def_200 (and .def_53 (and .def_149 (and .def_127 (and .def_168 (and .loc.8 (and .loc.6 (and .loc.5 .def_350)))))))) .def_359))) (and .def_359 (and .def_200 (and .def_149 (and .def_127 (and .def_168 (and .def_131 (and .def_114 (and .loc.8 (and .loc.7 (and .def_163 (and .def_112 (and .def_205 (and .def_109 (and .def_207 (and .def_106 (and .def_315 (and .def_160 (and .def_155 (and .def_103 (and .def_100 (and .def_97 (and .def_256 .def_317))))))))))))))))))))))) (and (and .def_55 (and .def_200 (and .def_149 (and .def_127 (and .def_168 (and .loc.12 (and .loc.7 (and .loc.6 (and .loc.5 (and .def_163 (and .def_112 (and .def_205 (and .def_109 (and .def_207 (and .def_106 .def_343))))))))))))))) .def_402)) (and .def_406 .def_408)) (and (and (or hhv_ULTIMATE.start_ULTIMATE.startEXIT_36_Bool (and (= .x.981 (store hhv_ULTIMATE.start_ULTIMATE.startEXIT_3_Array_Int_Array_Int_Int .x.991 (store .def_416 (+ .x.999 (* 4 .x.1004)) (select .def_413 (+ .x.990 (* 4 .x.1004)))))) .def_422)) (and .def_359 (and .def_200 (and .def_53 (and .def_149 (and .def_127 (and .loc.9 (and .def_131 (and .def_114 (and .loc.8 .def_350)))))))))) .def_436)) .def_440) (and (or hhv_ULTIMATE.start_ULTIMATE.startEXIT_36_Bool (and .def_421 (= .x.981 (store hhv_ULTIMATE.start_ULTIMATE.startEXIT_3_Array_Int_Array_Int_Int .x.991 (store .def_416 (+ .x.999 (* 4 .x.1004)) .def_444))))) (and .def_436 (and .def_359 (and .def_200 (and .def_53 (and .def_149 (and .def_127 (and .loc.9 (and .def_131 (and .def_114 (and .loc.8 (and .def_163 (and .def_112 (and .def_348 .def_406))))))))))))))) (and .def_359 (and .def_55 (and .def_127 (and .loc.11 (and .loc.10 (and .loc.9 (and .def_114 (and .loc.7 (and .loc.6 (and .def_163 (and .def_112 (and .def_406 (and .def_205 (and .def_440 (and .def_109 (and .def_207 (and .def_106 (and .def_315 (and .def_160 (and .def_155 (and .def_103 (and .def_100 (and .def_97 .def_469)))))))))))))))))))))))) (and .def_359 (and .def_311 (and .def_55 (and .def_127 (and .loc.11 (and .loc.10 (and .loc.9 (and .def_114 (and .loc.7 (and .loc.6 (and .def_163 (and .def_112 (and .def_406 (and .def_205 (and .def_440 (and .def_109 (and .def_207 (and .def_106 (and .def_315 .def_503)))))))))))))))))))) .def_525) (and .def_359 (and .def_331 (and .def_55 (and .def_53 (and .def_127 (and .def_168 (and .loc.11 (and .loc.10 (and .def_114 (and .loc.6 (and .def_163 (and .def_112 (and .def_406 (and .def_205 (and .def_440 (and .def_109 (and .def_207 (and .def_106 .def_503))))))))))))))))))) (and .def_402 (and .def_359 (and .def_55 (and .def_127 (and .def_168 (and .loc.11 (and .loc.10 (and .def_131 (and .loc.7 (and .loc.5 (and .def_163 (and .def_112 (and .def_406 (and .def_205 (and .def_440 (and .def_109 (and .def_207 (and .def_106 .def_551))))))))))))))))))) .def_572) (and (or hhv_ULTIMATE.start_ULTIMATE.startEXIT_36_Bool (and .def_422 (= .x.981 (store hhv_ULTIMATE.start_ULTIMATE.startEXIT_3_Array_Int_Array_Int_Int .x.1000 (store .def_413 (+ .x.990 (* 4 .x.1004)) .def_444))))) (and .def_436 (and .def_359 (and .def_55 (and .def_200 (and .def_127 (and .def_168 (and .loc.10 (and .def_114 (and .loc.7 (and .loc.6 (and .def_163 (and .def_112 (and .def_406 (and .def_205 (and .def_440 (and .def_109 (and .def_207 (and .def_106 (and .def_315 .def_584))))))))))))))))))))) (and (or hhv_ULTIMATE.start_ULTIMATE.startEXIT_36_Bool .def_421) (and .def_436 (and .def_359 (and .def_55 (and .def_200 (and .def_127 (and .def_168 (and .loc.10 (and .def_114 (and .loc.7 (and .loc.6 .def_616)))))))))))) (and .def_359 (and .def_55 (and .def_149 (and .def_127 (and .loc.11 (and .loc.9 (and .def_131 (and .def_114 (and .loc.7 (and .def_572 (and .def_163 (and .def_112 (and .def_406 (and .def_205 (and .def_440 (and .def_109 (and .def_207 (and .def_106 (and .def_315 (and .def_160 (and .def_155 (and .def_103 (and .def_100 (and .def_97 (and .def_469 .def_525)))))))))))))))))))))))))) (and .def_359 (and .def_311 (and .def_55 (and .def_149 (and .def_127 (and .loc.11 (and .loc.9 (and .def_131 (and .def_114 (and .loc.7 .def_616))))))))))) (and (= hhv_ULTIMATE.start_ULTIMATE.startEXIT_17_Int .x.995) (and (= hhv_ULTIMATE.start_ULTIMATE.startEXIT_16_Int .x.994) (and (= hhv_ULTIMATE.start_ULTIMATE.startEXIT_11_Int .x.989) (= hhv_ULTIMATE.start_ULTIMATE.startEXIT_15_Int .x.993))))) (and (or hbv_ULTIMATE.start_L2-1_36_Bool (and .def_435 (and (and (= .x.981 (store .def_688 hhv_ULTIMATE.start_ULTIMATE.startEXIT_13_Int (store (select .def_688 hhv_ULTIMATE.start_ULTIMATE.startEXIT_13_Int) (+ hhv_ULTIMATE.start_ULTIMATE.startEXIT_21_Int (* 4 hhv_ULTIMATE.start_ULTIMATE.startEXIT_26_Int)) hhv_ULTIMATE.start_ULTIMATE.startEXIT_16_Int))) (and (<= hhv_ULTIMATE.start_ULTIMATE.startEXIT_16_Int 2147483647) (and (<= hhv_ULTIMATE.start_ULTIMATE.startEXIT_15_Int 2147483647) (and (<= hhv_ULTIMATE.start_ULTIMATE.startEXIT_11_Int 2147483647) (and (<= (- 2147483648) hhv_ULTIMATE.start_ULTIMATE.startEXIT_16_Int) (<= (- 2147483648) hhv_ULTIMATE.start_ULTIMATE.startEXIT_15_Int)))))) (<= (- 2147483648) hhv_ULTIMATE.start_ULTIMATE.startEXIT_11_Int)))) (and (or hhv_ULTIMATE.start_ULTIMATE.startEXIT_36_Bool .def_330) (and .def_359 (and .def_55 (and .def_149 (and .def_127 (and .def_168 (and .loc.11 (and .def_131 (and .def_114 (and .loc.7 (and .def_572 (and .def_163 (and .def_112 (and .def_406 (and .def_205 (and .def_440 (and .def_109 (and .def_207 (and .def_106 .def_584))))))))))))))))))))) (and (= hhv_ULTIMATE.start_ULTIMATE.startEXIT_18_Int .x.996) (and (= hhv_ULTIMATE.start_ULTIMATE.startEXIT_9_Int .x.987) (and (= hhv_ULTIMATE.start_ULTIMATE.startEXIT_5_Int .x.983) (= hhv_ULTIMATE.start_ULTIMATE.startEXIT_7_Array_Int_Int .x.985))))) (and (or hbv_ULTIMATE.start_L2-1_36_Bool (and (and (= .x.983 0) (= .x.987 0)) (= hbv_ULTIMATE.start_L-1_1_Array_Int_Int (store hhv_ULTIMATE.start_ULTIMATE.startEXIT_1_Array_Int_Int 0 0)))) (and (or hhv_ULTIMATE.start_ULTIMATE.startEXIT_36_Bool (and (and (and (and (and (and (and (and (and (and (and (and (and (not (<= .x.978 .x.1000)) (and .def_401 (and (= .x.1007 0) (= .x.990 0)))) (not (<= .x.978 .x.991))) (= .x.996 150000)) (= .x.979 (store .def_764 .x.991 1))) (= .x.985 (store (store (store hhv_ULTIMATE.start_ULTIMATE.startEXIT_7_Array_Int_Int .x.1005 800000) .x.1000 800000) .x.991 800000))) (not (= .x.1000 0))) (not (<= .x.978 .x.1005))) (not (= .x.991 0))) (not (= .x.1005 0))) (= .x.999 0)) (= (select .def_764 .x.991) 0)) (= (select .def_763 .x.1000) 0)) (= (select hbv_ULTIMATE.start_L-1_1_Array_Int_Int .x.1005) 0))) (and .def_359 (and .def_55 (and .def_53 (and .def_149 (and .def_127 (and .def_168 (and .loc.11 (and .loc.6 (and .loc.5 (and .def_163 (and .def_103 (and .def_157 .def_408)))))))))))))))))))))))))))))))))))))))))))))))))))))))))))))))))))))))))))))))))))))) (state |.x.978| |.x.979| |.x.980| |.x.981| |.x.982| |.x.983| |.x.984| |.x.985| |.x.986| |.x.987| |.x.988| |.x.989| |.x.990| |.x.991| |.x.992| |.x.993| |.x.994| |.x.995| |.x.996| |.x.997| |.x.998| |.x.999| |.x.1000| |.x.1001| |.x.1002| |.x.1003| |.x.1004| |.x.1005| |.x.1006| |.x.1007| |.x.1008| |.x.1009| |.x.1010| |.x.1011| |.x.1012| |.x.1013| |hhv_ULTIMATE.start_ULTIMATE.startEXIT_36_Bool| |.loc.9| |.loc.10| |.loc.11| |.loc.12| |.xtv.1|))))
(assert (forall ((|hhv_ULTIMATE.start_ULTIMATE.startEXIT_0_Int| Int) (|hhv_ULTIMATE.start_ULTIMATE.startEXIT_1_Array_Int_Int| (Array Int Int)) (|hhv_ULTIMATE.start_ULTIMATE.startEXIT_2_Array_Int_Int| (Array Int Int)) (|hhv_ULTIMATE.start_ULTIMATE.startEXIT_3_Array_Int_Array_Int_Int| (Array Int Int)) (|hhv_ULTIMATE.start_ULTIMATE.startEXIT_4_Array_Int_Array_Int_Int| (Array Int Int)) (|hhv_ULTIMATE.start_ULTIMATE.startEXIT_5_Int| Int) (|hhv_ULTIMATE.start_ULTIMATE.startEXIT_6_Int| Int) (|hhv_ULTIMATE.start_ULTIMATE.startEXIT_7_Array_Int_Int| (Array Int Int)) (|hhv_ULTIMATE.start_ULTIMATE.startEXIT_8_Array_Int_Int| (Array Int Int)) (|hhv_ULTIMATE.start_ULTIMATE.startEXIT_9_Int| Int) (|hhv_ULTIMATE.start_ULTIMATE.startEXIT_10_Int| Int) (|hhv_ULTIMATE.start_ULTIMATE.startEXIT_11_Int| Int) (|hhv_ULTIMATE.start_ULTIMATE.startEXIT_12_Int| Int) (|hhv_ULTIMATE.start_ULTIMATE.startEXIT_13_Int| Int) (|hhv_ULTIMATE.start_ULTIMATE.startEXIT_14_Int| Int) (|hhv_ULTIMATE.start_ULTIMATE.startEXIT_15_Int| Int) (|hhv_ULTIMATE.start_ULTIMATE.startEXIT_16_Int| Int) (|hhv_ULTIMATE.start_ULTIMATE.startEXIT_17_Int| Int) (|hhv_ULTIMATE.start_ULTIMATE.startEXIT_18_Int| Int) (|hhv_ULTIMATE.start_ULTIMATE.startEXIT_19_Int| Int) (|hhv_ULTIMATE.start_ULTIMATE.startEXIT_20_Int| Int) (|hhv_ULTIMATE.start_ULTIMATE.startEXIT_21_Int| Int) (|hhv_ULTIMATE.start_ULTIMATE.startEXIT_22_Int| Int) (|hhv_ULTIMATE.start_ULTIMATE.startEXIT_23_Int| Int) (|hhv_ULTIMATE.start_ULTIMATE.startEXIT_24_Int| Int) (|hhv_ULTIMATE.start_ULTIMATE.startEXIT_25_Int| Int) (|hhv_ULTIMATE.start_ULTIMATE.startEXIT_26_Int| Int) (|hhv_ULTIMATE.start_ULTIMATE.startEXIT_27_Int| Int) (|hhv_ULTIMATE.start_ULTIMATE.startEXIT_28_Int| Int) (|hhv_ULTIMATE.start_ULTIMATE.startEXIT_29_Int| Int) (|hhv_ULTIMATE.start_ULTIMATE.startEXIT_30_Int| Int) (|hhv_ULTIMATE.start_ULTIMATE.startEXIT_31_Int| Int) (|hhv_ULTIMATE.start_ULTIMATE.startEXIT_32_Int| Int) (|hhv_ULTIMATE.start_ULTIMATE.startEXIT_33_Int| Int) (|hhv_ULTIMATE.start_ULTIMATE.startEXIT_34_Int| Int) (|hhv_ULTIMATE.start_ULTIMATE.startEXIT_35_Int| Int) (|hbv_ULTIMATE.start_L2-1_36_Bool| Bool) (|.loc.5| Bool) (|.loc.6| Bool) (|.loc.7| Bool) (|.loc.8| Bool) (|hbv_ULTIMATE.start_L-1_1_Array_Int_Int| (Array Int Int)) (|.x.988| Int) (|.x.986| (Array Int Int)) (|.x.984| Int) (|.x.982| (Array Int Int)) (|.x.978| Int) (|.x.980| (Array Int Int)) (|.x.979| (Array Int Int)) (|hhv_ULTIMATE.start_ULTIMATE.startEXIT_36_Bool| Bool) (|.x.990| Int) (|.x.991| Int) (|.x.999| Int) (|.x.1000| Int) (|.x.1001| Int) (|.x.1005| Int) (|.x.1007| Int) (|.x.1011| Int) (|.loc.10| Bool) (|.x.1002| Int) (|.x.992| Int) (|.x.1003| Int) (|.x.1012| Int) (|.loc.11| Bool) (|.loc.9| Bool) (|.x.1009| Int) (|.x.1006| Int) (|.x.1004| Int) (|.x.997| Int) (|.loc.12| Bool) (|.x.1010| Int) (|.x.981| (Array Int Int)) (|.x.996| Int) (|.x.1008| Int) (|.x.998| Int) (|.x.1013| Int) (|.x.995| Int) (|.x.994| Int) (|.x.989| Int) (|.x.993| Int) (|.x.987| Int) (|.x.983| Int) (|.x.985| (Array Int Int)) (|.xtv.1| (Array Int Int))) (=> (state |hhv_ULTIMATE.start_ULTIMATE.startEXIT_0_Int| |hhv_ULTIMATE.start_ULTIMATE.startEXIT_1_Array_Int_Int| |hhv_ULTIMATE.start_ULTIMATE.startEXIT_2_Array_Int_Int| |hhv_ULTIMATE.start_ULTIMATE.startEXIT_3_Array_Int_Array_Int_Int| |hhv_ULTIMATE.start_ULTIMATE.startEXIT_4_Array_Int_Array_Int_Int| |hhv_ULTIMATE.start_ULTIMATE.startEXIT_5_Int| |hhv_ULTIMATE.start_ULTIMATE.startEXIT_6_Int| |hhv_ULTIMATE.start_ULTIMATE.startEXIT_7_Array_Int_Int| |hhv_ULTIMATE.start_ULTIMATE.startEXIT_8_Array_Int_Int| |hhv_ULTIMATE.start_ULTIMATE.startEXIT_9_Int| |hhv_ULTIMATE.start_ULTIMATE.startEXIT_10_Int| |hhv_ULTIMATE.start_ULTIMATE.startEXIT_11_Int| |hhv_ULTIMATE.start_ULTIMATE.startEXIT_12_Int| |hhv_ULTIMATE.start_ULTIMATE.startEXIT_13_Int| |hhv_ULTIMATE.start_ULTIMATE.startEXIT_14_Int| |hhv_ULTIMATE.start_ULTIMATE.startEXIT_15_Int| |hhv_ULTIMATE.start_ULTIMATE.startEXIT_16_Int| |hhv_ULTIMATE.start_ULTIMATE.startEXIT_17_Int| |hhv_ULTIMATE.start_ULTIMATE.startEXIT_18_Int| |hhv_ULTIMATE.start_ULTIMATE.startEXIT_19_Int| |hhv_ULTIMATE.start_ULTIMATE.startEXIT_20_Int| |hhv_ULTIMATE.start_ULTIMATE.startEXIT_21_Int| |hhv_ULTIMATE.start_ULTIMATE.startEXIT_22_Int| |hhv_ULTIMATE.start_ULTIMATE.startEXIT_23_Int| |hhv_ULTIMATE.start_ULTIMATE.startEXIT_24_Int| |hhv_ULTIMATE.start_ULTIMATE.startEXIT_25_Int| |hhv_ULTIMATE.start_ULTIMATE.startEXIT_26_Int| |hhv_ULTIMATE.start_ULTIMATE.startEXIT_27_Int| |hhv_ULTIMATE.start_ULTIMATE.startEXIT_28_Int| |hhv_ULTIMATE.start_ULTIMATE.startEXIT_29_Int| |hhv_ULTIMATE.start_ULTIMATE.startEXIT_30_Int| |hhv_ULTIMATE.start_ULTIMATE.startEXIT_31_Int| |hhv_ULTIMATE.start_ULTIMATE.startEXIT_32_Int| |hhv_ULTIMATE.start_ULTIMATE.startEXIT_33_Int| |hhv_ULTIMATE.start_ULTIMATE.startEXIT_34_Int| |hhv_ULTIMATE.start_ULTIMATE.startEXIT_35_Int| |hbv_ULTIMATE.start_L2-1_36_Bool| |.loc.5| |.loc.6| |.loc.7| |.loc.8| |hbv_ULTIMATE.start_L-1_1_Array_Int_Int|) (not (and hbv_ULTIMATE.start_L2-1_36_Bool (and .loc.8 (and .loc.7 (and .loc.6 (not .loc.5)))))))))
(check-sat)
